
Gurobi 11.0.0 (win64) logging started Thu Apr 18 15:13:36 2024

Set parameter LogFile to value "./Results/StripPacking_CutsTest_SU/Logs/SU-StripPacking-18.log"
Set parameter TimeLimit to value 3600
Set parameter Cuts to value 1
Set parameter Presolve to value 1
Set parameter Heuristics to value 1
Gurobi Optimizer version 11.0.0 build v11.0.0rc2 (win64 - Windows 10.0 (19045.2))

CPU model: Intel(R) Core(TM) i9-10980XE CPU @ 3.00GHz, instruction set [SSE2|AVX|AVX2|AVX512]
Thread count: 18 physical cores, 36 logical processors, using up to 18 threads

Optimize a model with 2007 rows, 649 columns and 4932 nonzeros
Model fingerprint: 0x8e23e2b4
Variable types: 37 continuous, 612 integer (612 binary)
Coefficient statistics:
  Matrix range     [1e+00, 3e+02]
  Objective range  [1e+00, 1e+00]
  Bounds range     [1e+00, 3e+02]
  RHS range        [1e+00, 3e+02]
Presolve removed 16 rows and 5 columns
Presolve time: 0.02s
Presolved: 1991 rows, 644 columns, 6068 nonzeros
Variable types: 37 continuous, 607 integer (607 binary)

Root relaxation: objective 2.000000e+02, 408 iterations, 0.02 seconds (0.01 work units)

    Nodes    |    Current Node    |     Objective Bounds      |     Work
 Expl Unexpl |  Obj  Depth IntInf | Incumbent    BestBd   Gap | It/Node Time

     0     0  200.00000    0   32          -  200.00000      -     -    0s
H    0     0                     280.0000000  200.00000  28.6%     -    0s
     0     0  200.00000    0  121  280.00000  200.00000  28.6%     -    0s
H    0     0                     277.0000000  200.00000  27.8%     -    0s
H    0     0                     276.0000000  200.00000  27.5%     -    0s
H    0     0                     273.0000000  200.00000  26.7%     -    0s
     0     0  200.00000    0  107  273.00000  200.00000  26.7%     -    0s
     0     0  200.00000    0   39  273.00000  200.00000  26.7%     -    0s
     0     0  200.00000    0   71  273.00000  200.00000  26.7%     -    0s
     0     0  200.00000    0   33  273.00000  200.00000  26.7%     -    0s
     0     0  200.00000    0   33  273.00000  200.00000  26.7%     -    0s
H    0     0                     271.0000000  200.00000  26.2%     -    0s
     0     0  200.00000    0   32  271.00000  200.00000  26.2%     -    0s
H    0     0                     267.0000000  200.00000  25.1%     -    0s
     0     0  200.00000    0   53  267.00000  200.00000  25.1%     -    0s
     0     0  200.00000    0   38  267.00000  200.00000  25.1%     -    0s
     0     0  200.00000    0   36  267.00000  200.00000  25.1%     -    0s
H    0     0                     265.0000000  200.00000  24.5%     -    0s
     0     2  200.00000    0   32  265.00000  200.00000  24.5%     -    0s
H   19    32                     264.0000000  200.00000  24.2%  85.8    0s
H   87   104                     263.0000000  200.00000  24.0%  60.9    0s
H  105   135                     261.0000000  200.00000  23.4%  59.6    0s
H  138   153                     260.0000000  200.00000  23.1%  57.2    1s
H  145   153                     258.0000000  200.00000  22.5%  55.5    1s
H  179   172                     257.0000000  200.00000  22.2%  58.2    1s
H  205   175                     256.0000000  200.00000  21.9%  53.0    1s
H  209   175                     255.0000000  200.00000  21.6%  52.0    1s
H  210   175                     254.0000000  200.00000  21.3%  51.9    1s
H  270   225                     248.0000000  200.00000  19.4%  54.4    1s
H  280   225                     246.0000000  200.00000  18.7%  55.2    1s
H  287   225                     243.0000000  200.00000  17.7%  54.2    1s
H  352   266                     242.0000000  200.00000  17.4%  48.1    1s
H  512   329                     238.0000000  200.00000  16.0%  40.7    3s
H  732   412                     238.0000000  200.00000  16.0%  36.1    4s
   761   456  233.00000   20   79  238.00000  200.00000  16.0%  37.3    5s
  1575   642  206.78510   32   91  238.00000  200.00000  16.0%  33.0   10s
  3587   589  210.00000   22   74  238.00000  200.00000  16.0%  29.9   15s
  5572    21  233.00000   17   54  238.00000  233.00000  2.10%  24.2   20s

Cutting planes:
  Learned: 374
  Gomory: 8
  Cover: 48
  Implied bound: 4
  Clique: 6
  MIR: 180
  StrongCG: 1
  RLT: 58
  Relax-and-lift: 31

Explored 5836 nodes (142881 simplex iterations) in 20.39 seconds (17.45 work units)
Thread count was 18 (of 36 available processors)

Solution count 10: 238 238 242 ... 257

Optimal solution found (tolerance 1.00e-04)
Best objective 2.379999999761e+02, best bound 2.379999999761e+02, gap 0.0000%

Gurobi 11.0.0 (win64) logging started Thu Apr 18 15:13:57 2024

Set parameter LogFile to value "./Results/StripPacking_CutsTest_SU/Logs/SU-StripPacking-18.log"
Set parameter TimeLimit to value 3600
Set parameter Cuts to value 1
Set parameter Presolve to value 0
Set parameter Heuristics to value 0
Gurobi Optimizer version 11.0.0 build v11.0.0rc2 (win64 - Windows 10.0 (19045.2))

CPU model: Intel(R) Core(TM) i9-10980XE CPU @ 3.00GHz, instruction set [SSE2|AVX|AVX2|AVX512]
Thread count: 18 physical cores, 36 logical processors, using up to 18 threads

Optimize a model with 2007 rows, 649 columns and 4932 nonzeros
Model fingerprint: 0x8e23e2b4
Variable types: 37 continuous, 612 integer (612 binary)
Coefficient statistics:
  Matrix range     [1e+00, 3e+02]
  Objective range  [1e+00, 1e+00]
  Bounds range     [1e+00, 3e+02]
  RHS range        [1e+00, 3e+02]
Variable types: 37 continuous, 612 integer (612 binary)

Root relaxation: objective 1.640450e+02, 475 iterations, 0.00 seconds (0.01 work units)

    Nodes    |    Current Node    |     Objective Bounds      |     Work
 Expl Unexpl |  Obj  Depth IntInf | Incumbent    BestBd   Gap | It/Node Time

     0     0  164.04500    0   39          -  164.04500      -     -    0s
     0     0  200.00000    0   39          -  200.00000      -     -    0s
     0     0  200.00000    0   82          -  200.00000      -     -    0s
     0     0  200.00000    0   77          -  200.00000      -     -    0s
H    0     0                     277.0000000  200.00000  27.8%     -    0s
     0     0  200.00000    0   31  277.00000  200.00000  27.8%     -    0s
     0     0  200.00000    0   38  277.00000  200.00000  27.8%     -    0s
     0     0  200.00000    0   29  277.00000  200.00000  27.8%     -    0s
     0     0  200.00000    0   50  277.00000  200.00000  27.8%     -    0s
H    0     0                     272.0000000  200.00000  26.5%     -    0s
     0     0  200.00000    0   32  272.00000  200.00000  26.5%     -    0s
     0     0  200.00000    0   58  272.00000  200.00000  26.5%     -    0s
H    0     0                     270.0000000  200.00000  25.9%     -    0s
     0     0  200.00000    0   34  270.00000  200.00000  25.9%     -    0s
     0     0  200.00000    0   34  270.00000  200.00000  25.9%     -    0s
     0     2  200.00000    0   29  270.00000  200.00000  25.9%     -    0s
*  632   604              43     269.0000000  200.00000  25.7%  32.3    1s
*  690   604              47     268.0000000  200.00000  25.4%  31.9    1s
*  850   873              56     266.0000000  200.00000  24.8%  29.1    1s
* 1110   873              71     257.0000000  200.00000  22.2%  25.8    1s
* 3096  1206              59     256.0000000  200.00000  21.9%  24.7    1s
* 3433  1301              60     255.0000000  200.00000  21.6%  24.5    1s
* 3979  1333              68     254.0000000  200.00000  21.3%  24.3    1s
* 5098  1649              43     253.0000000  207.67442  17.9%  26.4    2s
* 5526  1678              57     251.0000000  211.00000  15.9%  25.7    3s
* 5711  1605              66     249.0000000  211.00000  15.3%  25.4    3s
* 6058  1599              73     243.0000000  211.00000  13.2%  25.1    3s
* 6495  1509              68     242.0000000  238.00000  1.65%  24.8    3s
* 6749  1434              80     240.0000000  238.00000  0.83%  24.5    3s
* 6781  1370              60     238.0000000  238.00000  0.00%  24.4    3s

Cutting planes:
  Learned: 438
  Gomory: 2
  Cover: 47
  Implied bound: 3
  Clique: 4
  MIR: 34
  Flow cover: 130
  RLT: 31
  Relax-and-lift: 21
  BQP: 1

Explored 7369 nodes (180204 simplex iterations) in 3.59 seconds (1.90 work units)
Thread count was 18 (of 36 available processors)

Solution count 10: 238 240 242 ... 256

Optimal solution found (tolerance 1.00e-04)
Best objective 2.380000000000e+02, best bound 2.380000000000e+02, gap 0.0000%

Gurobi 11.0.0 (win64) logging started Thu Apr 18 15:14:01 2024

Set parameter LogFile to value "./Results/StripPacking_CutsTest_SU/Logs/SU-StripPacking-18.log"
Set parameter TimeLimit to value 3600
Set parameter Cuts to value 0
Set parameter Presolve to value 1
Set parameter Heuristics to value 0
Gurobi Optimizer version 11.0.0 build v11.0.0rc2 (win64 - Windows 10.0 (19045.2))

CPU model: Intel(R) Core(TM) i9-10980XE CPU @ 3.00GHz, instruction set [SSE2|AVX|AVX2|AVX512]
Thread count: 18 physical cores, 36 logical processors, using up to 18 threads

Optimize a model with 2007 rows, 649 columns and 4932 nonzeros
Model fingerprint: 0x8e23e2b4
Variable types: 37 continuous, 612 integer (612 binary)
Coefficient statistics:
  Matrix range     [1e+00, 3e+02]
  Objective range  [1e+00, 1e+00]
  Bounds range     [1e+00, 3e+02]
  RHS range        [1e+00, 3e+02]
Presolve removed 16 rows and 5 columns
Presolve time: 0.01s
Presolved: 1991 rows, 644 columns, 6068 nonzeros
Variable types: 37 continuous, 607 integer (607 binary)

Root relaxation: objective 2.000000e+02, 408 iterations, 0.00 seconds (0.01 work units)

    Nodes    |    Current Node    |     Objective Bounds      |     Work
 Expl Unexpl |  Obj  Depth IntInf | Incumbent    BestBd   Gap | It/Node Time

     0     0  200.00000    0   32          -  200.00000      -     -    0s
     0     0  200.00000    0   28          -  200.00000      -     -    0s
     0     2  200.00000    0   20          -  200.00000      -     -    0s
* 1520  1219              85     280.0000000  200.00000  28.6%  13.5    0s
* 1646  1219              75     275.0000000  200.00000  27.3%  13.5    0s
* 1842  1254             108     274.0000000  200.00000  27.0%  13.0    0s
* 1905  1254              90     273.0000000  200.00000  26.7%  13.1    0s
* 3446  1792              52     271.0000000  200.00000  26.2%  16.4    0s
* 3473  1849              40     269.0000000  200.00000  25.7%  16.3    0s
* 3706  1847              47     267.0000000  200.00000  25.1%  16.2    0s
* 3912  1875              49     264.0000000  200.00000  24.2%  16.0    0s
* 4086  1706              61     257.0000000  200.00000  22.2%  15.5    0s
* 4719  1413              63     256.0000000  200.00000  21.9%  15.9    0s
* 5313  1143              57     255.0000000  200.00000  21.6%  15.5    0s
* 5394  1302              53     253.0000000  200.00000  20.9%  15.4    0s
* 6144  1107              53     252.0000000  200.00000  20.6%  15.5    1s
* 6514  1383              60     250.0000000  200.00000  20.0%  15.2    1s
* 7443  1315              59     249.0000000  233.00000  6.43%  14.6    1s
* 8133  1099              42     248.0000000  233.00000  6.05%  14.3    1s
* 8910  1318              65     247.0000000  237.00000  4.05%  13.8    1s
* 9515   929              47     244.0000000  238.00000  2.46%  14.0    1s
*11148   920              56     241.0000000  238.00000  1.24%  13.0    1s
*11758  1331              64     240.0000000  238.00000  0.83%  12.9    1s
*12654  1331              68     238.0000000  238.00000  0.00%  12.3    1s

Explored 12810 nodes (158475 simplex iterations) in 1.51 seconds (1.26 work units)
Thread count was 18 (of 36 available processors)

Solution count 10: 238 240 241 ... 253

Optimal solution found (tolerance 1.00e-04)
Best objective 2.380000000000e+02, best bound 2.380000000000e+02, gap 0.0000%

Gurobi 11.0.0 (win64) logging started Thu Apr 18 15:14:02 2024

Set parameter LogFile to value "./Results/StripPacking_CutsTest_SU/Logs/SU-StripPacking-18.log"
Set parameter TimeLimit to value 3600
Set parameter Cuts to value 0
Set parameter Presolve to value 0
Set parameter Heuristics to value 1
Gurobi Optimizer version 11.0.0 build v11.0.0rc2 (win64 - Windows 10.0 (19045.2))

CPU model: Intel(R) Core(TM) i9-10980XE CPU @ 3.00GHz, instruction set [SSE2|AVX|AVX2|AVX512]
Thread count: 18 physical cores, 36 logical processors, using up to 18 threads

Optimize a model with 2007 rows, 649 columns and 4932 nonzeros
Model fingerprint: 0x8e23e2b4
Variable types: 37 continuous, 612 integer (612 binary)
Coefficient statistics:
  Matrix range     [1e+00, 3e+02]
  Objective range  [1e+00, 1e+00]
  Bounds range     [1e+00, 3e+02]
  RHS range        [1e+00, 3e+02]
Variable types: 37 continuous, 612 integer (612 binary)

Root relaxation: objective 1.640450e+02, 475 iterations, 0.02 seconds (0.01 work units)

    Nodes    |    Current Node    |     Objective Bounds      |     Work
 Expl Unexpl |  Obj  Depth IntInf | Incumbent    BestBd   Gap | It/Node Time

     0     0  164.04500    0   39          -  164.04500      -     -    0s
     0     0  200.00000    0   39          -  200.00000      -     -    0s
     0     0  200.00000    0   20          -  200.00000      -     -    0s
     0     2  200.00000    0   19          -  200.00000      -     -    0s
H    4     8                     280.0000000  200.00000  28.6%  69.3    0s
H   38    37                     278.0000000  200.00000  28.1%  48.4    0s
H   82    82                     277.0000000  200.00000  27.8%  34.1    0s
H   82    82                     269.0000000  200.00000  25.7%  34.1    0s
H  106   112                     268.9999999  200.00000  25.7%  28.8    0s
H  133   142                     261.0000000  200.00000  23.4%  27.1    0s
H  196   199                     257.0000000  200.00000  22.2%  38.3    0s
H  353   312                     255.0000000  200.00000  21.6%  28.9    1s
H  361   312                     254.0000000  200.00000  21.3%  28.4    1s
H  368   312                     253.0000000  200.00000  20.9%  27.9    1s
H  399   406                     253.0000000  200.00000  20.9%  29.3    2s
H  417   406                     249.0000000  200.00000  19.7%  28.4    2s
H  447   406                     247.0000000  200.00000  19.0%  28.8    2s
H  910   629                     247.0000000  200.00000  19.0%  24.7    2s
H  939   641                     245.0000000  200.00000  18.4%  24.6    2s
H  941   641                     244.0000000  200.00000  18.0%  24.6    2s
H 1112   863                     243.0000000  200.00000  17.7%  22.9    3s
H 1503  1039                     239.0000000  200.00000  16.3%  20.8    3s
H 1889  1016                     239.0000000  200.00000  16.3%  20.4    4s
  2351  1307  226.00000   28   62  239.00000  200.00000  16.3%  20.4    5s
H 2574  1150                     238.0000000  200.00000  16.0%  20.8    5s

Explored 4925 nodes (106203 simplex iterations) in 8.15 seconds (7.35 work units)
Thread count was 18 (of 36 available processors)

Solution count 10: 238 239 239 ... 253

Optimal solution found (tolerance 1.00e-04)
Best objective 2.380000000000e+02, best bound 2.380000000000e+02, gap 0.0000%

Gurobi 11.0.0 (win64) logging started Thu Apr 18 15:14:10 2024

Set parameter LogFile to value "./Results/StripPacking_CutsTest_SU/Logs/SU-StripPacking-18.log"
Set parameter TimeLimit to value 3600
Set parameter Cuts to value 1
Set parameter Presolve to value 1
Set parameter Heuristics to value 0
Gurobi Optimizer version 11.0.0 build v11.0.0rc2 (win64 - Windows 10.0 (19045.2))

CPU model: Intel(R) Core(TM) i9-10980XE CPU @ 3.00GHz, instruction set [SSE2|AVX|AVX2|AVX512]
Thread count: 18 physical cores, 36 logical processors, using up to 18 threads

Optimize a model with 2007 rows, 649 columns and 4932 nonzeros
Model fingerprint: 0x8e23e2b4
Variable types: 37 continuous, 612 integer (612 binary)
Coefficient statistics:
  Matrix range     [1e+00, 3e+02]
  Objective range  [1e+00, 1e+00]
  Bounds range     [1e+00, 3e+02]
  RHS range        [1e+00, 3e+02]
Presolve removed 16 rows and 5 columns
Presolve time: 0.00s
Presolved: 1991 rows, 644 columns, 6068 nonzeros
Variable types: 37 continuous, 607 integer (607 binary)

Root relaxation: objective 2.000000e+02, 408 iterations, 0.00 seconds (0.01 work units)

    Nodes    |    Current Node    |     Objective Bounds      |     Work
 Expl Unexpl |  Obj  Depth IntInf | Incumbent    BestBd   Gap | It/Node Time

     0     0  200.00000    0   32          -  200.00000      -     -    0s
     0     0  200.00000    0  121          -  200.00000      -     -    0s
     0     0  200.00000    0  107          -  200.00000      -     -    0s
H    0     0                     275.0000000  200.00000  27.3%     -    0s
     0     0  200.00000    0   38  275.00000  200.00000  27.3%     -    0s
     0     0  200.00000    0   40  275.00000  200.00000  27.3%     -    0s
     0     0  200.00000    0   36  275.00000  200.00000  27.3%     -    0s
     0     0  200.00000    0   71  275.00000  200.00000  27.3%     -    0s
     0     0  200.00000    0   48  275.00000  200.00000  27.3%     -    0s
     0     0  200.00000    0   29  275.00000  200.00000  27.3%     -    0s
     0     2  200.00000    0   28  275.00000  200.00000  27.3%     -    0s
*  788   788              58     274.0000000  200.00000  27.0%  30.4    0s
*  824   788              54     273.0000000  200.00000  26.7%  29.4    0s
* 1609  1208              65     269.0000000  200.00000  25.7%  23.0    0s
* 2830  1862              63     268.0000000  200.00000  25.4%  21.4    1s
* 3027  1857              85     267.0000000  200.00000  25.1%  20.5    1s
* 3032  1536              85     261.0000000  200.00000  23.4%  20.5    1s
H 3276  1220                     257.0000000  200.00000  22.2%  19.8    1s
* 3932  1558              45     255.0000000  202.78551  20.5%  22.9    2s
* 4071  1527              47     254.0000000  202.78551  20.2%  22.6    2s
* 4316  1630              55     251.0000000  210.00000  16.3%  22.1    2s
* 4543  1565              59     249.0000000  212.00000  14.9%  21.8    2s
* 5138  1495              65     248.0000000  212.00000  14.5%  20.7    2s
* 5637  1192              51     247.0000000  232.00000  6.07%  20.4    2s
* 6424  1336              60     246.0000000  238.00000  3.25%  19.1    2s
* 6498  1336              54     245.0000000  238.00000  2.86%  19.0    2s
* 6705  1336              59     240.0000000  238.00000  0.83%  18.6    2s
* 7109  1336              64     238.0000000  238.00000  0.00%  17.9    2s

Cutting planes:
  Learned: 134
  Gomory: 2
  Cover: 41
  Implied bound: 3
  Clique: 10
  MIR: 40
  StrongCG: 1
  Flow cover: 82
  RLT: 21
  Relax-and-lift: 13

Explored 7247 nodes (132220 simplex iterations) in 2.65 seconds (1.86 work units)
Thread count was 18 (of 36 available processors)

Solution count 10: 238 240 245 ... 255

Optimal solution found (tolerance 1.00e-04)
Best objective 2.380000000000e+02, best bound 2.380000000000e+02, gap 0.0000%

Gurobi 11.0.0 (win64) logging started Thu Apr 18 15:14:13 2024

Set parameter LogFile to value "./Results/StripPacking_CutsTest_SU/Logs/SU-StripPacking-18.log"
Set parameter TimeLimit to value 3600
Set parameter Cuts to value 1
Set parameter Presolve to value 0
Set parameter Heuristics to value 1
Gurobi Optimizer version 11.0.0 build v11.0.0rc2 (win64 - Windows 10.0 (19045.2))

CPU model: Intel(R) Core(TM) i9-10980XE CPU @ 3.00GHz, instruction set [SSE2|AVX|AVX2|AVX512]
Thread count: 18 physical cores, 36 logical processors, using up to 18 threads

Optimize a model with 2007 rows, 649 columns and 4932 nonzeros
Model fingerprint: 0x8e23e2b4
Variable types: 37 continuous, 612 integer (612 binary)
Coefficient statistics:
  Matrix range     [1e+00, 3e+02]
  Objective range  [1e+00, 1e+00]
  Bounds range     [1e+00, 3e+02]
  RHS range        [1e+00, 3e+02]
Variable types: 37 continuous, 612 integer (612 binary)

Root relaxation: objective 1.640450e+02, 475 iterations, 0.00 seconds (0.01 work units)

    Nodes    |    Current Node    |     Objective Bounds      |     Work
 Expl Unexpl |  Obj  Depth IntInf | Incumbent    BestBd   Gap | It/Node Time

     0     0  164.04500    0   39          -  164.04500      -     -    0s
     0     0  200.00000    0   39          -  200.00000      -     -    0s
H    0     0                     280.0000000  200.00000  28.6%     -    0s
     0     0  200.00000    0   82  280.00000  200.00000  28.6%     -    0s
     0     0  200.00000    0   93  280.00000  200.00000  28.6%     -    0s
H    0     0                     279.0000000  200.00000  28.3%     -    0s
     0     0  200.00000    0   37  279.00000  200.00000  28.3%     -    0s
     0     0  200.00000    0   66  279.00000  200.00000  28.3%     -    0s
H    0     0                     277.0000000  200.00000  27.8%     -    0s
     0     0  200.00000    0   34  277.00000  200.00000  27.8%     -    0s
     0     0  200.00000    0   44  277.00000  200.00000  27.8%     -    0s
     0     0  200.00000    0   37  277.00000  200.00000  27.8%     -    0s
     0     0  200.00000    0   32  277.00000  200.00000  27.8%     -    0s
H    0     0                     273.0000000  200.00000  26.7%     -    0s
     0     0  200.00000    0   27  273.00000  200.00000  26.7%     -    0s
H    0     0                     272.0000000  200.00000  26.5%     -    0s
     0     0  200.00000    0   36  272.00000  200.00000  26.5%     -    0s
     0     0  200.00000    0   49  272.00000  200.00000  26.5%     -    0s
H    0     0                     270.0000000  200.00000  25.9%     -    0s
     0     0  200.00000    0   48  270.00000  200.00000  25.9%     -    0s
H    0     0                     265.0000000  200.00000  24.5%     -    0s
H    0     0                     261.0000000  200.00000  23.4%     -    0s
     0     2  200.00000    0   34  261.00000  200.00000  23.4%     -    0s
H   22    31                     258.0000000  200.00000  22.5%   135    0s
H  120    72                     258.0000000  202.25197  21.6%  76.3    0s
H  206   113                     257.0000000  202.25197  21.3%  58.0    1s
H  291   138                     252.0000000  202.25197  19.7%  46.7    2s
H  312   138                     248.0000000  202.25197  18.4%  45.9    2s
H  386   129                     243.0000000  202.25197  16.8%  41.4    2s
H  425   138                     238.0000000  202.25197  15.0%  41.7    3s
H  474   109                     238.0000000  202.75989  14.8%  39.4    3s
   553   102  226.00000   10   92  238.00000  202.75989  14.8%  36.5    5s
   811    81  226.00000   12   75  238.00000  210.00000  11.8%  31.1   10s
  1172   128  228.40833   10  111  238.00000  226.00000  5.04%  25.7   15s
  1901   207 infeasible   30       238.00000  226.00000  5.04%  19.8   20s

Cutting planes:
  Learned: 568
  Gomory: 5
  Cover: 26
  Implied bound: 2
  Clique: 1
  MIR: 148
  StrongCG: 1
  Inf proof: 1
  RLT: 35
  Relax-and-lift: 17

Explored 2668 nodes (50598 simplex iterations) in 22.63 seconds (18.99 work units)
Thread count was 18 (of 36 available processors)

Solution count 10: 238 238 243 ... 265

Optimal solution found (tolerance 1.00e-04)
Best objective 2.379999999761e+02, best bound 2.379999999761e+02, gap 0.0000%

Gurobi 11.0.0 (win64) logging started Thu Apr 18 15:14:36 2024

Set parameter LogFile to value "./Results/StripPacking_CutsTest_SU/Logs/SU-StripPacking-18.log"
Set parameter TimeLimit to value 3600
Set parameter Cuts to value 0
Set parameter Presolve to value 1
Set parameter Heuristics to value 1
Gurobi Optimizer version 11.0.0 build v11.0.0rc2 (win64 - Windows 10.0 (19045.2))

CPU model: Intel(R) Core(TM) i9-10980XE CPU @ 3.00GHz, instruction set [SSE2|AVX|AVX2|AVX512]
Thread count: 18 physical cores, 36 logical processors, using up to 18 threads

Optimize a model with 2007 rows, 649 columns and 4932 nonzeros
Model fingerprint: 0x8e23e2b4
Variable types: 37 continuous, 612 integer (612 binary)
Coefficient statistics:
  Matrix range     [1e+00, 3e+02]
  Objective range  [1e+00, 1e+00]
  Bounds range     [1e+00, 3e+02]
  RHS range        [1e+00, 3e+02]
Presolve removed 16 rows and 5 columns
Presolve time: 0.02s
Presolved: 1991 rows, 644 columns, 6068 nonzeros
Variable types: 37 continuous, 607 integer (607 binary)

Root relaxation: objective 2.000000e+02, 408 iterations, 0.00 seconds (0.01 work units)

    Nodes    |    Current Node    |     Objective Bounds      |     Work
 Expl Unexpl |  Obj  Depth IntInf | Incumbent    BestBd   Gap | It/Node Time

     0     0  200.00000    0   32          -  200.00000      -     -    0s
     0     0  200.00000    0   27          -  200.00000      -     -    0s
H    0     0                     280.0000000  200.00000  28.6%     -    0s
H    0     2                     277.0000000  200.00000  27.8%     -    0s
     0     2  200.00000    0   27  277.00000  200.00000  27.8%     -    0s
H    7    12                     275.0000000  200.00000  27.3%  77.0    0s
H   47    56                     271.0000000  200.00000  26.2%  36.9    0s
H   47    56                     270.0000000  200.00000  25.9%  36.9    0s
H   52    56                     267.0000000  200.00000  25.1%  35.8    0s
H  166   181                     262.0000000  200.00000  23.7%  45.3    0s
H  174   181                     257.0000000  200.00000  22.2%  43.6    0s
H  497   386                     253.0000000  200.00000  20.9%  25.2    0s
H  824   598                     246.0000000  200.00000  18.7%  21.3    1s
H  836   598                     245.0000000  200.00000  18.4%  21.6    1s
H  845   598                     244.0000000  200.00000  18.0%  21.5    1s
H 1160   812                     241.0000000  200.00000  17.0%  20.7    2s
H 1332   827                     239.0000000  200.00000  16.3%  21.7    2s
H 1459   869                     238.0000000  200.00000  16.0%  21.8    3s
  2308  1027  234.00000   28   26  238.00000  200.00000  16.0%  20.9    5s
  3896  1550  215.00000   14   50  238.00000  200.00000  16.0%  20.8   10s

Explored 7156 nodes (148237 simplex iterations) in 13.16 seconds (10.23 work units)
Thread count was 18 (of 36 available processors)

Solution count 10: 238 239 241 ... 267

Optimal solution found (tolerance 1.00e-04)
Best objective 2.380000000000e+02, best bound 2.380000000000e+02, gap 0.0000%

Gurobi 11.0.0 (win64) logging started Thu Apr 18 15:14:49 2024

Set parameter LogFile to value "./Results/StripPacking_CutsTest_SU/Logs/SU-StripPacking-18.log"
Set parameter TimeLimit to value 3600
Set parameter Cuts to value 0
Set parameter Presolve to value 0
Set parameter Heuristics to value 0
Gurobi Optimizer version 11.0.0 build v11.0.0rc2 (win64 - Windows 10.0 (19045.2))

CPU model: Intel(R) Core(TM) i9-10980XE CPU @ 3.00GHz, instruction set [SSE2|AVX|AVX2|AVX512]
Thread count: 18 physical cores, 36 logical processors, using up to 18 threads

Optimize a model with 2007 rows, 649 columns and 4932 nonzeros
Model fingerprint: 0x8e23e2b4
Variable types: 37 continuous, 612 integer (612 binary)
Coefficient statistics:
  Matrix range     [1e+00, 3e+02]
  Objective range  [1e+00, 1e+00]
  Bounds range     [1e+00, 3e+02]
  RHS range        [1e+00, 3e+02]
Variable types: 37 continuous, 612 integer (612 binary)

Root relaxation: objective 1.640450e+02, 475 iterations, 0.00 seconds (0.01 work units)

    Nodes    |    Current Node    |     Objective Bounds      |     Work
 Expl Unexpl |  Obj  Depth IntInf | Incumbent    BestBd   Gap | It/Node Time

     0     0  164.04500    0   39          -  164.04500      -     -    0s
     0     0  200.00000    0   39          -  200.00000      -     -    0s
     0     0  200.00000    0   16          -  200.00000      -     -    0s
     0     2  200.00000    0   13          -  200.00000      -     -    0s
*  725   779              43     280.0000000  200.00000  28.6%  18.7    0s
* 1682  1377              88     275.0000000  200.00000  27.3%  14.1    0s
* 1731  1377              84     261.0000000  200.00000  23.4%  13.8    0s
* 3129  1651              76     260.0000000  200.00000  23.1%  11.9    0s
* 3784  1719              41     258.0000000  200.00000  22.5%  14.5    0s
* 4376  1906              51     257.0000000  200.00000  22.2%  15.0    0s
* 4579  1791              65     254.0000000  200.00000  21.3%  14.8    0s
* 5084  1767              58     251.0000000  200.00000  20.3%  15.1    0s
* 5473  1696              73     248.0000000  200.00000  19.4%  14.9    0s
* 6142  1532              78     247.0000000  212.00000  14.2%  14.5    1s
* 7080  1205              62     246.0000000  212.00000  13.8%  14.4    1s
* 7540  1044              50     244.0000000  212.00000  13.1%  14.2    1s
* 7867  1214              44     242.0000000  212.00000  12.4%  14.0    1s
* 8639   943              60     239.0000000  226.00000  5.44%  13.6    1s
*10056   856              48     238.0000000  238.00000  0.00%  12.9    1s

Explored 10488 nodes (138686 simplex iterations) in 1.42 seconds (1.11 work units)
Thread count was 18 (of 36 available processors)

Solution count 10: 238 239 242 ... 257

Optimal solution found (tolerance 1.00e-04)
Best objective 2.380000000000e+02, best bound 2.380000000000e+02, gap 0.0000%
